(declare-fun bvlambda_2_ ()Bool         )
(declare-fun a47 () (Array (_ BitVec 4) (_ BitVec 10)))
(declare-fun a52 () (Array (_ BitVec 1) (_ BitVec 10)))
(assert
(let (($e1 false    ))
(let (($e2 (_ bv0  4)))
(let (($e103 (select a47        $e2 )))
(let (($e112 (store a52        bvlambda_2_ $e103)))
(let (($e113 (select $e112 true       )))
(let (($e127      (=            $e113  $e103)         ))
(let (($e141 (store a52 $e1 $e103)))
(let (($e142 (select $e141 $e127)))
(let (($e151 (concat        bvlambda_2_ $e142)))
(let (($e160 (concat $e113         $e127       )))
                  (=     $e151 $e160)
                                                                                                                                                                                                                                                                                                            )        )        ))             )             ))        )                                                                                        )))
